Minimize
	value: tt

Subject to
tt + 1000 s_1_1 > 0.0
tt - t_1_1 - 1003.010658 s_1_1  + 3.010658 s_1_7  > -973.131700
tt + 1000 s_2_1 > 0.0
tt - t_2_1 - 1002.684744 s_2_1  + 2.684744 s_2_7  > -958.884186
tt + 1000 s_1_2 > 0.0
tt - t_1_2 - 1003.010658 s_1_2  + 3.010658 s_1_8  > -970.230111
tt + 1000 s_2_2 > 0.0
tt - t_2_2 - 1002.684744 s_2_2  + 2.684744 s_2_8  > -956.599750
tt + 1000 s_1_3 > 0.0
tt - t_1_3 - 1003.010658 s_1_3  + 3.010658 s_1_8  > -955.634000
tt + 1000 s_2_3 > 0.0
tt - t_2_3 - 1002.684744 s_2_3  + 2.684744 s_2_8  > -931.600400
tt + 1000 s_1_4 > 0.0
tt - t_1_4 - 1006.021316 s_1_4  + 3.010658 s_1_3  + 3.010658 s_1_8  > -975.176956
tt + 1000 s_2_4 > 0.0
tt - t_2_4 - 1005.369488 s_2_4  + 2.684744 s_2_3  + 2.684744 s_2_8  > -961.395167
tt + 1000 s_1_5 > 0.0
tt - t_1_5 - 1006.021316 s_1_5  + 3.010658 s_1_7  + 3.010658 s_1_8  > -977.552200
tt + 1000 s_2_5 > 0.0
tt - t_2_5 - 1005.369488 s_2_5  + 2.684744 s_2_7  + 2.684744 s_2_8  > -965.836359
tt + 1000 s_1_6 > 0.0
tt - t_1_6 - 1015.053289 s_1_6  + 3.010658 s_1_4  + 3.010658 s_1_5  + 3.010658 s_1_3  + 3.010658 s_1_2  + 3.010658 s_1_1  > -997.758000
tt + 1000 s_2_6 > 0.0
tt - t_2_6 - 1013.423720 s_2_6  + 2.684744 s_2_4  + 2.684744 s_2_5  + 2.684744 s_2_3  + 2.684744 s_2_2  + 2.684744 s_2_1  > -966.763100
tt + 1000 s_1_7 > 0.0
tt - t_1_7 - 1000.000000 s_1_7  > -927.950700
tt + 1000 s_2_7 > 0.0
tt - t_2_7 - 1000.000000 s_2_7  > -929.232600
tt + 1000 s_1_8 > 0.0
tt - t_1_8 - 1000.000000 s_1_8  > -930.229200
tt + 1000 s_2_8 > 0.0
tt - t_2_8 - 1000.000000 s_2_8  > -929.768700
s_1_1 + s_2_1 = 1
s_1_2 + s_2_2 = 1
s_1_3 + s_2_3 = 1
s_1_4 + s_2_4 = 1
s_1_5 + s_2_5 = 1
s_1_6 + s_2_6 = 1
s_1_7 + s_2_7 = 1
s_1_8 + s_2_8 = 1
s_1_1 + s_1_2 + 1000 r_1_1_2 >= 2
- s_1_1 - s_1_2 - 1000 r_1_1_2 >= -1001
t_1_1 - t_1_2 - 1000.000000 u_1_1_2 - 3.010658 s_1_2  + 3.010658 s_1_8  + 2000.000000 r_1_1_2 > -970.230111
s_2_1 + s_2_2 + 1000 r_2_1_2 >= 2
- s_2_1 - s_2_2 - 1000 r_2_1_2 >= -1001
t_2_1 - t_2_2 - 1000.000000 u_2_1_2 - 2.684744 s_2_2  + 2.684744 s_2_8  + 2000.000000 r_2_1_2 > -956.599750
s_1_1 + s_1_3 + 1000 r_1_1_3 >= 2
- s_1_1 - s_1_3 - 1000 r_1_1_3 >= -1001
t_1_1 - t_1_3 - 1000.000000 u_1_1_3 - 3.010658 s_1_3  + 3.010658 s_1_8  + 2000.000000 r_1_1_3 > -955.634000
s_2_1 + s_2_3 + 1000 r_2_1_3 >= 2
- s_2_1 - s_2_3 - 1000 r_2_1_3 >= -1001
t_2_1 - t_2_3 - 1000.000000 u_2_1_3 - 2.684744 s_2_3  + 2.684744 s_2_8  + 2000.000000 r_2_1_3 > -931.600400
s_1_1 + s_1_4 + 1000 r_1_1_4 >= 2
- s_1_1 - s_1_4 - 1000 r_1_1_4 >= -1001
t_1_1 - t_1_4 - 1000.000000 u_1_1_4 - 6.021316 s_1_4  + 3.010658 s_1_3  + 3.010658 s_1_8  + 2000.000000 r_1_1_4 > -975.176956
s_2_1 + s_2_4 + 1000 r_2_1_4 >= 2
- s_2_1 - s_2_4 - 1000 r_2_1_4 >= -1001
t_2_1 - t_2_4 - 1000.000000 u_2_1_4 - 5.369488 s_2_4  + 2.684744 s_2_3  + 2.684744 s_2_8  + 2000.000000 r_2_1_4 > -961.395167
s_1_1 + s_1_5 + 1000 r_1_1_5 >= 2
- s_1_1 - s_1_5 - 1000 r_1_1_5 >= -1001
t_1_1 - t_1_5 - 1000.000000 u_1_1_5 - 6.021316 s_1_5  + 3.010658 s_1_7  + 3.010658 s_1_8  + 2000.000000 r_1_1_5 > -977.552200
s_2_1 + s_2_5 + 1000 r_2_1_5 >= 2
- s_2_1 - s_2_5 - 1000 r_2_1_5 >= -1001
t_2_1 - t_2_5 - 1000.000000 u_2_1_5 - 5.369488 s_2_5  + 2.684744 s_2_7  + 2.684744 s_2_8  + 2000.000000 r_2_1_5 > -965.836359
t_1_6 - t_1_1 - 1003.010658 s_1_1  + 3.010658 s_1_7  > -973.131700
t_1_6 - t_2_1 - 1002.684744 s_2_1  + 2.684744 s_2_7  > -958.884186
t_2_6 - t_1_1 - 1003.010658 s_1_1  + 3.010658 s_1_7  > -973.131700
t_2_6 - t_2_1 - 1002.684744 s_2_1  + 2.684744 s_2_7  > -958.884186
t_1_1 - t_1_7 - 1000.000000 s_1_7  > -927.950700
t_1_1 - t_2_7 - 1000.000000 s_2_7  > -929.232600
t_2_1 - t_1_7 - 1000.000000 s_1_7  > -927.950700
t_2_1 - t_2_7 - 1000.000000 s_2_7  > -929.232600
s_1_1 + s_1_8 + 1000 r_1_1_8 >= 2
- s_1_1 - s_1_8 - 1000 r_1_1_8 >= -1001
t_1_1 - t_1_8 - 1000.000000 u_1_1_8 - 0.000000 s_1_8  + 2000.000000 r_1_1_8 > -930.229200
s_2_1 + s_2_8 + 1000 r_2_1_8 >= 2
- s_2_1 - s_2_8 - 1000 r_2_1_8 >= -1001
t_2_1 - t_2_8 - 1000.000000 u_2_1_8 - 0.000000 s_2_8  + 2000.000000 r_2_1_8 > -929.768700
s_1_2 + s_1_1 + 1000 r_1_1_2 >= 2
- s_1_2 - s_1_1 - 1000 r_1_1_2 >= -1001
t_1_2 - t_1_1 + 1000.000000 u_1_1_2 - 3.010658 s_1_1  + 3.010658 s_1_7  + 2000.000000 r_1_1_2 > 26.868300
s_2_2 + s_2_1 + 1000 r_2_1_2 >= 2
- s_2_2 - s_2_1 - 1000 r_2_1_2 >= -1001
t_2_2 - t_2_1 + 1000.000000 u_2_1_2 - 2.684744 s_2_1  + 2.684744 s_2_7  + 2000.000000 r_2_1_2 > 41.115814
s_1_2 + s_1_3 + 1000 r_1_2_3 >= 2
- s_1_2 - s_1_3 - 1000 r_1_2_3 >= -1001
t_1_2 - t_1_3 - 1000.000000 u_1_2_3 - 3.010658 s_1_3  + 3.010658 s_1_8  + 2000.000000 r_1_2_3 > -955.634000
s_2_2 + s_2_3 + 1000 r_2_2_3 >= 2
- s_2_2 - s_2_3 - 1000 r_2_2_3 >= -1001
t_2_2 - t_2_3 - 1000.000000 u_2_2_3 - 2.684744 s_2_3  + 2.684744 s_2_8  + 2000.000000 r_2_2_3 > -931.600400
s_1_2 + s_1_4 + 1000 r_1_2_4 >= 2
- s_1_2 - s_1_4 - 1000 r_1_2_4 >= -1001
t_1_2 - t_1_4 - 1000.000000 u_1_2_4 - 6.021316 s_1_4  + 3.010658 s_1_3  + 3.010658 s_1_8  + 2000.000000 r_1_2_4 > -975.176956
s_2_2 + s_2_4 + 1000 r_2_2_4 >= 2
- s_2_2 - s_2_4 - 1000 r_2_2_4 >= -1001
t_2_2 - t_2_4 - 1000.000000 u_2_2_4 - 5.369488 s_2_4  + 2.684744 s_2_3  + 2.684744 s_2_8  + 2000.000000 r_2_2_4 > -961.395167
s_1_2 + s_1_5 + 1000 r_1_2_5 >= 2
- s_1_2 - s_1_5 - 1000 r_1_2_5 >= -1001
t_1_2 - t_1_5 - 1000.000000 u_1_2_5 - 6.021316 s_1_5  + 3.010658 s_1_7  + 3.010658 s_1_8  + 2000.000000 r_1_2_5 > -977.552200
s_2_2 + s_2_5 + 1000 r_2_2_5 >= 2
- s_2_2 - s_2_5 - 1000 r_2_2_5 >= -1001
t_2_2 - t_2_5 - 1000.000000 u_2_2_5 - 5.369488 s_2_5  + 2.684744 s_2_7  + 2.684744 s_2_8  + 2000.000000 r_2_2_5 > -965.836359
t_1_6 - t_1_2 - 1003.010658 s_1_2  + 3.010658 s_1_8  > -970.230111
t_1_6 - t_2_2 - 1002.684744 s_2_2  + 2.684744 s_2_8  > -956.599750
t_2_6 - t_1_2 - 1003.010658 s_1_2  + 3.010658 s_1_8  > -970.230111
t_2_6 - t_2_2 - 1002.684744 s_2_2  + 2.684744 s_2_8  > -956.599750
s_1_2 + s_1_7 + 1000 r_1_2_7 >= 2
- s_1_2 - s_1_7 - 1000 r_1_2_7 >= -1001
t_1_2 - t_1_7 - 1000.000000 u_1_2_7 - 0.000000 s_1_7  + 2000.000000 r_1_2_7 > -927.950700
s_2_2 + s_2_7 + 1000 r_2_2_7 >= 2
- s_2_2 - s_2_7 - 1000 r_2_2_7 >= -1001
t_2_2 - t_2_7 - 1000.000000 u_2_2_7 - 0.000000 s_2_7  + 2000.000000 r_2_2_7 > -929.232600
t_1_2 - t_1_8 - 1000.000000 s_1_8  > -930.229200
t_1_2 - t_2_8 - 1000.000000 s_2_8  > -929.768700
t_2_2 - t_1_8 - 1000.000000 s_1_8  > -930.229200
t_2_2 - t_2_8 - 1000.000000 s_2_8  > -929.768700
s_1_3 + s_1_1 + 1000 r_1_1_3 >= 2
- s_1_3 - s_1_1 - 1000 r_1_1_3 >= -1001
t_1_3 - t_1_1 + 1000.000000 u_1_1_3 - 3.010658 s_1_1  + 3.010658 s_1_7  + 2000.000000 r_1_1_3 > 26.868300
s_2_3 + s_2_1 + 1000 r_2_1_3 >= 2
- s_2_3 - s_2_1 - 1000 r_2_1_3 >= -1001
t_2_3 - t_2_1 + 1000.000000 u_2_1_3 - 2.684744 s_2_1  + 2.684744 s_2_7  + 2000.000000 r_2_1_3 > 41.115814
s_1_3 + s_1_2 + 1000 r_1_2_3 >= 2
- s_1_3 - s_1_2 - 1000 r_1_2_3 >= -1001
t_1_3 - t_1_2 + 1000.000000 u_1_2_3 - 3.010658 s_1_2  + 3.010658 s_1_8  + 2000.000000 r_1_2_3 > 29.769889
s_2_3 + s_2_2 + 1000 r_2_2_3 >= 2
- s_2_3 - s_2_2 - 1000 r_2_2_3 >= -1001
t_2_3 - t_2_2 + 1000.000000 u_2_2_3 - 2.684744 s_2_2  + 2.684744 s_2_8  + 2000.000000 r_2_2_3 > 43.400250
t_1_4 - t_1_3 - 1003.010658 s_1_3  + 3.010658 s_1_8  > -955.634000
t_1_4 - t_2_3 - 1002.684744 s_2_3  + 2.684744 s_2_8  > -931.600400
t_2_4 - t_1_3 - 1003.010658 s_1_3  + 3.010658 s_1_8  > -955.634000
t_2_4 - t_2_3 - 1002.684744 s_2_3  + 2.684744 s_2_8  > -931.600400
s_1_3 + s_1_5 + 1000 r_1_3_5 >= 2
- s_1_3 - s_1_5 - 1000 r_1_3_5 >= -1001
t_1_3 - t_1_5 - 1000.000000 u_1_3_5 - 6.021316 s_1_5  + 3.010658 s_1_7  + 3.010658 s_1_8  + 2000.000000 r_1_3_5 > -977.552200
s_2_3 + s_2_5 + 1000 r_2_3_5 >= 2
- s_2_3 - s_2_5 - 1000 r_2_3_5 >= -1001
t_2_3 - t_2_5 - 1000.000000 u_2_3_5 - 5.369488 s_2_5  + 2.684744 s_2_7  + 2.684744 s_2_8  + 2000.000000 r_2_3_5 > -965.836359
t_1_6 - t_1_3 - 1003.010658 s_1_3  + 3.010658 s_1_8  > -955.634000
t_1_6 - t_2_3 - 1002.684744 s_2_3  + 2.684744 s_2_8  > -931.600400
t_2_6 - t_1_3 - 1003.010658 s_1_3  + 3.010658 s_1_8  > -955.634000
t_2_6 - t_2_3 - 1002.684744 s_2_3  + 2.684744 s_2_8  > -931.600400
s_1_3 + s_1_7 + 1000 r_1_3_7 >= 2
- s_1_3 - s_1_7 - 1000 r_1_3_7 >= -1001
t_1_3 - t_1_7 - 1000.000000 u_1_3_7 - 0.000000 s_1_7  + 2000.000000 r_1_3_7 > -927.950700
s_2_3 + s_2_7 + 1000 r_2_3_7 >= 2
- s_2_3 - s_2_7 - 1000 r_2_3_7 >= -1001
t_2_3 - t_2_7 - 1000.000000 u_2_3_7 - 0.000000 s_2_7  + 2000.000000 r_2_3_7 > -929.232600
t_1_3 - t_1_8 - 1000.000000 s_1_8  > -930.229200
t_1_3 - t_2_8 - 1000.000000 s_2_8  > -929.768700
t_2_3 - t_1_8 - 1000.000000 s_1_8  > -930.229200
t_2_3 - t_2_8 - 1000.000000 s_2_8  > -929.768700
s_1_4 + s_1_1 + 1000 r_1_1_4 >= 2
- s_1_4 - s_1_1 - 1000 r_1_1_4 >= -1001
t_1_4 - t_1_1 + 1000.000000 u_1_1_4 - 3.010658 s_1_1  + 3.010658 s_1_7  + 2000.000000 r_1_1_4 > 26.868300
s_2_4 + s_2_1 + 1000 r_2_1_4 >= 2
- s_2_4 - s_2_1 - 1000 r_2_1_4 >= -1001
t_2_4 - t_2_1 + 1000.000000 u_2_1_4 - 2.684744 s_2_1  + 2.684744 s_2_7  + 2000.000000 r_2_1_4 > 41.115814
s_1_4 + s_1_2 + 1000 r_1_2_4 >= 2
- s_1_4 - s_1_2 - 1000 r_1_2_4 >= -1001
t_1_4 - t_1_2 + 1000.000000 u_1_2_4 - 3.010658 s_1_2  + 3.010658 s_1_8  + 2000.000000 r_1_2_4 > 29.769889
s_2_4 + s_2_2 + 1000 r_2_2_4 >= 2
- s_2_4 - s_2_2 - 1000 r_2_2_4 >= -1001
t_2_4 - t_2_2 + 1000.000000 u_2_2_4 - 2.684744 s_2_2  + 2.684744 s_2_8  + 2000.000000 r_2_2_4 > 43.400250
s_1_4 + s_1_5 + 1000 r_1_4_5 >= 2
- s_1_4 - s_1_5 - 1000 r_1_4_5 >= -1001
t_1_4 - t_1_5 - 1000.000000 u_1_4_5 - 6.021316 s_1_5  + 3.010658 s_1_7  + 3.010658 s_1_8  + 2000.000000 r_1_4_5 > -977.552200
s_2_4 + s_2_5 + 1000 r_2_4_5 >= 2
- s_2_4 - s_2_5 - 1000 r_2_4_5 >= -1001
t_2_4 - t_2_5 - 1000.000000 u_2_4_5 - 5.369488 s_2_5  + 2.684744 s_2_7  + 2.684744 s_2_8  + 2000.000000 r_2_4_5 > -965.836359
t_1_6 - t_1_4 - 1006.021316 s_1_4  + 3.010658 s_1_3  + 3.010658 s_1_8  > -975.176956
t_1_6 - t_2_4 - 1005.369488 s_2_4  + 2.684744 s_2_3  + 2.684744 s_2_8  > -961.395167
t_2_6 - t_1_4 - 1006.021316 s_1_4  + 3.010658 s_1_3  + 3.010658 s_1_8  > -975.176956
t_2_6 - t_2_4 - 1005.369488 s_2_4  + 2.684744 s_2_3  + 2.684744 s_2_8  > -961.395167
s_1_4 + s_1_7 + 1000 r_1_4_7 >= 2
- s_1_4 - s_1_7 - 1000 r_1_4_7 >= -1001
t_1_4 - t_1_7 - 1000.000000 u_1_4_7 - 0.000000 s_1_7  + 2000.000000 r_1_4_7 > -927.950700
s_2_4 + s_2_7 + 1000 r_2_4_7 >= 2
- s_2_4 - s_2_7 - 1000 r_2_4_7 >= -1001
t_2_4 - t_2_7 - 1000.000000 u_2_4_7 - 0.000000 s_2_7  + 2000.000000 r_2_4_7 > -929.232600
t_1_4 - t_1_8 - 1000.000000 s_1_8  > -930.229200
t_1_4 - t_2_8 - 1000.000000 s_2_8  > -929.768700
t_2_4 - t_1_8 - 1000.000000 s_1_8  > -930.229200
t_2_4 - t_2_8 - 1000.000000 s_2_8  > -929.768700
s_1_5 + s_1_1 + 1000 r_1_1_5 >= 2
- s_1_5 - s_1_1 - 1000 r_1_1_5 >= -1001
t_1_5 - t_1_1 + 1000.000000 u_1_1_5 - 3.010658 s_1_1  + 3.010658 s_1_7  + 2000.000000 r_1_1_5 > 26.868300
s_2_5 + s_2_1 + 1000 r_2_1_5 >= 2
- s_2_5 - s_2_1 - 1000 r_2_1_5 >= -1001
t_2_5 - t_2_1 + 1000.000000 u_2_1_5 - 2.684744 s_2_1  + 2.684744 s_2_7  + 2000.000000 r_2_1_5 > 41.115814
s_1_5 + s_1_2 + 1000 r_1_2_5 >= 2
- s_1_5 - s_1_2 - 1000 r_1_2_5 >= -1001
t_1_5 - t_1_2 + 1000.000000 u_1_2_5 - 3.010658 s_1_2  + 3.010658 s_1_8  + 2000.000000 r_1_2_5 > 29.769889
s_2_5 + s_2_2 + 1000 r_2_2_5 >= 2
- s_2_5 - s_2_2 - 1000 r_2_2_5 >= -1001
t_2_5 - t_2_2 + 1000.000000 u_2_2_5 - 2.684744 s_2_2  + 2.684744 s_2_8  + 2000.000000 r_2_2_5 > 43.400250
s_1_5 + s_1_3 + 1000 r_1_3_5 >= 2
- s_1_5 - s_1_3 - 1000 r_1_3_5 >= -1001
t_1_5 - t_1_3 + 1000.000000 u_1_3_5 - 3.010658 s_1_3  + 3.010658 s_1_8  + 2000.000000 r_1_3_5 > 44.366000
s_2_5 + s_2_3 + 1000 r_2_3_5 >= 2
- s_2_5 - s_2_3 - 1000 r_2_3_5 >= -1001
t_2_5 - t_2_3 + 1000.000000 u_2_3_5 - 2.684744 s_2_3  + 2.684744 s_2_8  + 2000.000000 r_2_3_5 > 68.399600
s_1_5 + s_1_4 + 1000 r_1_4_5 >= 2
- s_1_5 - s_1_4 - 1000 r_1_4_5 >= -1001
t_1_5 - t_1_4 + 1000.000000 u_1_4_5 - 6.021316 s_1_4  + 3.010658 s_1_3  + 3.010658 s_1_8  + 2000.000000 r_1_4_5 > 24.823044
s_2_5 + s_2_4 + 1000 r_2_4_5 >= 2
- s_2_5 - s_2_4 - 1000 r_2_4_5 >= -1001
t_2_5 - t_2_4 + 1000.000000 u_2_4_5 - 5.369488 s_2_4  + 2.684744 s_2_3  + 2.684744 s_2_8  + 2000.000000 r_2_4_5 > 38.604833
t_1_6 - t_1_5 - 1006.021316 s_1_5  + 3.010658 s_1_7  + 3.010658 s_1_8  > -977.552200
t_1_6 - t_2_5 - 1005.369488 s_2_5  + 2.684744 s_2_7  + 2.684744 s_2_8  > -965.836359
t_2_6 - t_1_5 - 1006.021316 s_1_5  + 3.010658 s_1_7  + 3.010658 s_1_8  > -977.552200
t_2_6 - t_2_5 - 1005.369488 s_2_5  + 2.684744 s_2_7  + 2.684744 s_2_8  > -965.836359
t_1_5 - t_1_7 - 1000.000000 s_1_7  > -927.950700
t_1_5 - t_2_7 - 1000.000000 s_2_7  > -929.232600
t_2_5 - t_1_7 - 1000.000000 s_1_7  > -927.950700
t_2_5 - t_2_7 - 1000.000000 s_2_7  > -929.232600
t_1_5 - t_1_8 - 1000.000000 s_1_8  > -930.229200
t_1_5 - t_2_8 - 1000.000000 s_2_8  > -929.768700
t_2_5 - t_1_8 - 1000.000000 s_1_8  > -930.229200
t_2_5 - t_2_8 - 1000.000000 s_2_8  > -929.768700
s_1_7 + s_1_2 + 1000 r_1_2_7 >= 2
- s_1_7 - s_1_2 - 1000 r_1_2_7 >= -1001
t_1_7 - t_1_2 + 1000.000000 u_1_2_7 - 3.010658 s_1_2  + 3.010658 s_1_8  + 2000.000000 r_1_2_7 > 29.769889
s_2_7 + s_2_2 + 1000 r_2_2_7 >= 2
- s_2_7 - s_2_2 - 1000 r_2_2_7 >= -1001
t_2_7 - t_2_2 + 1000.000000 u_2_2_7 - 2.684744 s_2_2  + 2.684744 s_2_8  + 2000.000000 r_2_2_7 > 43.400250
s_1_7 + s_1_3 + 1000 r_1_3_7 >= 2
- s_1_7 - s_1_3 - 1000 r_1_3_7 >= -1001
t_1_7 - t_1_3 + 1000.000000 u_1_3_7 - 3.010658 s_1_3  + 3.010658 s_1_8  + 2000.000000 r_1_3_7 > 44.366000
s_2_7 + s_2_3 + 1000 r_2_3_7 >= 2
- s_2_7 - s_2_3 - 1000 r_2_3_7 >= -1001
t_2_7 - t_2_3 + 1000.000000 u_2_3_7 - 2.684744 s_2_3  + 2.684744 s_2_8  + 2000.000000 r_2_3_7 > 68.399600
s_1_7 + s_1_4 + 1000 r_1_4_7 >= 2
- s_1_7 - s_1_4 - 1000 r_1_4_7 >= -1001
t_1_7 - t_1_4 + 1000.000000 u_1_4_7 - 6.021316 s_1_4  + 3.010658 s_1_3  + 3.010658 s_1_8  + 2000.000000 r_1_4_7 > 24.823044
s_2_7 + s_2_4 + 1000 r_2_4_7 >= 2
- s_2_7 - s_2_4 - 1000 r_2_4_7 >= -1001
t_2_7 - t_2_4 + 1000.000000 u_2_4_7 - 5.369488 s_2_4  + 2.684744 s_2_3  + 2.684744 s_2_8  + 2000.000000 r_2_4_7 > 38.604833
s_1_7 + s_1_8 + 1000 r_1_7_8 >= 2
- s_1_7 - s_1_8 - 1000 r_1_7_8 >= -1001
t_1_7 - t_1_8 - 1000.000000 u_1_7_8 - 0.000000 s_1_8  + 2000.000000 r_1_7_8 > -930.229200
s_2_7 + s_2_8 + 1000 r_2_7_8 >= 2
- s_2_7 - s_2_8 - 1000 r_2_7_8 >= -1001
t_2_7 - t_2_8 - 1000.000000 u_2_7_8 - 0.000000 s_2_8  + 2000.000000 r_2_7_8 > -929.768700
s_1_8 + s_1_1 + 1000 r_1_1_8 >= 2
- s_1_8 - s_1_1 - 1000 r_1_1_8 >= -1001
t_1_8 - t_1_1 + 1000.000000 u_1_1_8 - 3.010658 s_1_1  + 3.010658 s_1_7  + 2000.000000 r_1_1_8 > 26.868300
s_2_8 + s_2_1 + 1000 r_2_1_8 >= 2
- s_2_8 - s_2_1 - 1000 r_2_1_8 >= -1001
t_2_8 - t_2_1 + 1000.000000 u_2_1_8 - 2.684744 s_2_1  + 2.684744 s_2_7  + 2000.000000 r_2_1_8 > 41.115814
s_1_8 + s_1_7 + 1000 r_1_7_8 >= 2
- s_1_8 - s_1_7 - 1000 r_1_7_8 >= -1001
t_1_8 - t_1_7 + 1000.000000 u_1_7_8 - 0.000000 s_1_7  + 2000.000000 r_1_7_8 > 72.049300
s_2_8 + s_2_7 + 1000 r_2_7_8 >= 2
- s_2_8 - s_2_7 - 1000 r_2_7_8 >= -1001
t_2_8 - t_2_7 + 1000.000000 u_2_7_8 - 0.000000 s_2_7  + 2000.000000 r_2_7_8 > 70.767400
Binary
s_1_1
s_2_1
s_1_2
s_2_2
s_1_3
s_2_3
s_1_4
s_2_4
s_1_5
s_2_5
s_1_6
s_2_6
s_1_7
s_2_7
s_1_8
s_2_8
u_1_1_2
r_1_1_2
u_2_1_2
r_2_1_2
u_1_1_3
r_1_1_3
u_2_1_3
r_2_1_3
u_1_1_4
r_1_1_4
u_2_1_4
r_2_1_4
u_1_1_5
r_1_1_5
u_2_1_5
r_2_1_5
u_1_1_8
r_1_1_8
u_2_1_8
r_2_1_8
u_1_2_3
r_1_2_3
u_2_2_3
r_2_2_3
u_1_2_4
r_1_2_4
u_2_2_4
r_2_2_4
u_1_2_5
r_1_2_5
u_2_2_5
r_2_2_5
u_1_2_7
r_1_2_7
u_2_2_7
r_2_2_7
u_1_3_5
r_1_3_5
u_2_3_5
r_2_3_5
u_1_3_7
r_1_3_7
u_2_3_7
r_2_3_7
u_1_4_5
r_1_4_5
u_2_4_5
r_2_4_5
u_1_4_7
r_1_4_7
u_2_4_7
r_2_4_7
u_1_7_8
r_1_7_8
u_2_7_8
r_2_7_8

End
